(set-info :smt-lib-version 2.6)
(set-logic QF_UFBV)
(set-info :source |
Generated by: Certora
Generated on: 2024-01-16
Generator: The Certora Prover
Application: Web3 security
|)
(set-info :license "https://creativecommons.org/licenses/by/4.0/")
(set-info :category "industrial")
(set-info :status unknown)
(declare-fun x252 () (_ BitVec 256))
(declare-fun x197 () (_ BitVec 256))
(declare-fun x81 () (_ BitVec 256))
(declare-fun x242 () (_ BitVec 256))
(declare-fun x72 () (_ BitVec 256))
(declare-fun x74 () (_ BitVec 256))
(declare-fun x51 () Bool)
(declare-fun x223 () (_ BitVec 256))
(declare-fun x177 () (_ BitVec 256))
(declare-fun x295 () (_ BitVec 256))
(declare-fun x220 () (_ BitVec 256))
(declare-fun x184 () (_ BitVec 256))
(declare-fun x87 () (_ BitVec 256))
(declare-fun x37 () (_ BitVec 256))
(declare-fun x190 () (_ BitVec 256))
(declare-fun x288 () (_ BitVec 256))
(declare-fun x324 () (_ BitVec 256))
(declare-fun x209 () (_ BitVec 256))
(declare-fun x8 () (_ BitVec 256))
(declare-fun x76 () (_ BitVec 256))
(declare-fun x260 () (_ BitVec 256))
(declare-fun x248 () (_ BitVec 256))
(declare-fun x16 () (_ BitVec 256))
(declare-fun x149 () (_ BitVec 256))
(declare-fun x233 () (_ BitVec 256))
(declare-fun x181 () (_ BitVec 256))
(declare-fun x138 ((_ BitVec 256)) (_ BitVec 256))
(declare-fun x172 () (_ BitVec 256))
(declare-fun x281 () Bool)
(declare-fun x297 () (_ BitVec 256))
(declare-fun x107 () (_ BitVec 256))
(declare-fun x342 ((_ BitVec 256) (_ BitVec 256) (_ BitVec 256)) (_ BitVec 256))
(declare-fun x333 () (_ BitVec 256))
(declare-fun x152 () (_ BitVec 256))
(declare-fun x123 () Bool)
(declare-fun x206 () Bool)
(declare-fun x326 () (_ BitVec 256))
(declare-fun x196 () (_ BitVec 256))
(declare-fun x234 ((_ BitVec 256)) (_ BitVec 256))
(declare-fun x53 () (_ BitVec 256))
(declare-fun x73 () (_ BitVec 256))
(declare-fun x91 () (_ BitVec 256))
(declare-fun x104 () (_ BitVec 256))
(declare-fun x224 () (_ BitVec 256))
(declare-fun x121 ((_ BitVec 256)) (_ BitVec 256))
(declare-fun x309 () (_ BitVec 256))
(declare-fun x282 () (_ BitVec 256))
(declare-fun x315 () (_ BitVec 256))
(declare-fun x240 () Bool)
(declare-fun x246 () (_ BitVec 256))
(declare-fun x155 () (_ BitVec 256))
(declare-fun x261 () (_ BitVec 256))
(declare-fun x229 () (_ BitVec 256))
(declare-fun x131 () (_ BitVec 256))
(declare-fun x120 () Bool)
(declare-fun x178 () (_ BitVec 256))
(declare-fun x128 () (_ BitVec 256))
(declare-fun x27 () (_ BitVec 256))
(declare-fun x145 () (_ BitVec 256))
(declare-fun x156 () (_ BitVec 256))
(declare-fun x306 () (_ BitVec 256))
(declare-fun x317 () (_ BitVec 256))
(declare-fun x100 () (_ BitVec 256))
(declare-fun x66 () (_ BitVec 256))
(declare-fun x303 () (_ BitVec 256))
(declare-fun x96 () (_ BitVec 256))
(declare-fun x266 () (_ BitVec 256))
(declare-fun x169 () Bool)
(declare-fun x68 () Bool)
(declare-fun x56 () (_ BitVec 256))
(declare-fun x328 () (_ BitVec 256))
(declare-fun x291 () (_ BitVec 256))
(declare-fun x153 () Bool)
(declare-fun x325 () Bool)
(declare-fun x336 () (_ BitVec 256))
(declare-fun x43 () (_ BitVec 256))
(declare-fun x310 () (_ BitVec 256))
(declare-fun x55 () (_ BitVec 256))
(declare-fun x94 () (_ BitVec 256))
(declare-fun x212 () (_ BitVec 256))
(declare-fun x335 () (_ BitVec 256))
(declare-fun x115 () (_ BitVec 256))
(declare-fun x302 ((_ BitVec 256)) (_ BitVec 256))
(declare-fun x204 () (_ BitVec 256))
(declare-fun x345 () (_ BitVec 256))
(declare-fun x182 () (_ BitVec 256))
(declare-fun x198 () (_ BitVec 256))
(declare-fun x112 () (_ BitVec 256))
(declare-fun x101 () (_ BitVec 256))
(declare-fun x313 () (_ BitVec 256))
(declare-fun x143 () (_ BitVec 256))
(declare-fun x299 () (_ BitVec 256))
(declare-fun x102 () Bool)
(declare-fun x63 () (_ BitVec 256))
(declare-fun x125 () Bool)
(declare-fun x194 () (_ BitVec 256))
(declare-fun x268 () (_ BitVec 256))
(declare-fun x58 () (_ BitVec 256))
(declare-fun x167 () (_ BitVec 256))
(declare-fun x137 () (_ BitVec 256))
(declare-fun x215 () Bool)
(declare-fun x319 () Bool)
(declare-fun x103 () (_ BitVec 256))
(declare-fun x243 () (_ BitVec 256))
(declare-fun x218 () (_ BitVec 256))
(declare-fun x195 () (_ BitVec 256))
(declare-fun x192 () (_ BitVec 256))
(declare-fun x140 () (_ BitVec 256))
(declare-fun x296 () (_ BitVec 256))
(declare-fun x47 () (_ BitVec 256))
(declare-fun x69 () Bool)
(declare-fun x203 () (_ BitVec 256))
(declare-fun x219 () (_ BitVec 256))
(declare-fun x57 () (_ BitVec 256))
(declare-fun x50 () Bool)
(declare-fun x79 () (_ BitVec 256))
(declare-fun x42 () (_ BitVec 256))
(declare-fun x23 () (_ BitVec 256))
(declare-fun x97 () (_ BitVec 256))
(declare-fun x232 () Bool)
(declare-fun x274 ((_ BitVec 256) (_ BitVec 256) (_ BitVec 256) (_ BitVec 256) (_ BitVec 256) (_ BitVec 256)) (_ BitVec 256))
(declare-fun x77 () (_ BitVec 256))
(declare-fun x117 () (_ BitVec 256))
(declare-fun x249 () Bool)
(declare-fun x135 () (_ BitVec 256))
(declare-fun x300 () (_ BitVec 256))
(declare-fun x251 () (_ BitVec 256))
(declare-fun x84 () (_ BitVec 256))
(declare-fun x189 () (_ BitVec 256))
(declare-fun x113 () Bool)
(declare-fun x61 () (_ BitVec 256))
(declare-fun x122 () (_ BitVec 256))
(declare-fun x13 () (_ BitVec 256))
(declare-fun x139 () (_ BitVec 256))
(declare-fun x46 () (_ BitVec 256))
(declare-fun x305 () (_ BitVec 256))
(declare-fun x221 () (_ BitVec 256))
(declare-fun x344 () (_ BitVec 256))
(declare-fun x1 () (_ BitVec 256))
(declare-fun x199 () (_ BitVec 256))
(declare-fun x24 () (_ BitVec 256))
(declare-fun x312 () (_ BitVec 256))
(declare-fun x85 () (_ BitVec 256))
(declare-fun x147 ((_ BitVec 256)) (_ BitVec 256))
(declare-fun x231 () (_ BitVec 256))
(declare-fun x19 () Bool)
(declare-fun x237 () (_ BitVec 256))
(declare-fun x307 () (_ BitVec 256))
(declare-fun x264 () (_ BitVec 256))
(declare-fun x329 () (_ BitVec 256))
(declare-fun x45 () (_ BitVec 256))
(declare-fun x119 () (_ BitVec 256))
(declare-fun x136 () (_ BitVec 256))
(declare-fun x150 () (_ BitVec 256))
(declare-fun x331 () (_ BitVec 256))
(declare-fun x129 () (_ BitVec 256))
(declare-fun x90 () (_ BitVec 256))
(declare-fun x238 () (_ BitVec 256))
(declare-fun x314 () (_ BitVec 256))
(declare-fun x226 () (_ BitVec 256))
(declare-fun x330 () (_ BitVec 256))
(declare-fun x44 () (_ BitVec 256))
(declare-fun x340 () (_ BitVec 256))
(declare-fun x200 ((_ BitVec 256)) Bool)
(declare-fun x65 () (_ BitVec 256))
(declare-fun x304 () (_ BitVec 256))
(declare-fun x33 ((_ BitVec 256)) (_ BitVec 256))
(declare-fun x179 ((_ BitVec 256)) (_ BitVec 256))
(declare-fun x95 () (_ BitVec 256))
(declare-fun x62 () Bool)
(declare-fun x287 () (_ BitVec 256))
(declare-fun x290 () (_ BitVec 256))
(declare-fun x211 () (_ BitVec 256))
(declare-fun x41 ((_ BitVec 256)) (_ BitVec 256))
(declare-fun x36 () (_ BitVec 256))
(declare-fun x134 () (_ BitVec 256))
(declare-fun x327 () (_ BitVec 256))
(declare-fun x253 () (_ BitVec 256))
(declare-fun x289 () (_ BitVec 256))
(declare-fun x59 () (_ BitVec 256))
(declare-fun x257 () (_ BitVec 256))
(declare-fun x132 () Bool)
(declare-fun x80 () (_ BitVec 256))
(declare-fun x318 () (_ BitVec 256))
(declare-fun x168 () Bool)
(declare-fun x263 () Bool)
(declare-fun x191 () (_ BitVec 256))
(declare-fun x98 () (_ BitVec 256))
(declare-fun x216 () (_ BitVec 256))
(declare-fun x28 () (_ BitVec 256))
(declare-fun x278 ((_ BitVec 256)) (_ BitVec 256))
(declare-fun x210 () (_ BitVec 256))
(declare-fun x207 () (_ BitVec 256))
(declare-fun x11 () (_ BitVec 256))
(declare-fun x254 () (_ BitVec 256))
(declare-fun x154 () Bool)
(declare-fun x337 () (_ BitVec 256))
(declare-fun x10 () Bool)
(declare-fun x67 () (_ BitVec 256))
(declare-fun x170 () Bool)
(declare-fun x163 () (_ BitVec 256))
(declare-fun x208 () (_ BitVec 256))
(declare-fun x141 () Bool)
(declare-fun x130 () (_ BitVec 256))
(declare-fun x213 () (_ BitVec 256))
(declare-fun x188 () (_ BitVec 256))
(declare-fun x89 () Bool)
(declare-fun x225 () (_ BitVec 256))
(declare-fun x293 () Bool)
(declare-fun x4 () (_ BitVec 256))
(declare-fun x151 () (_ BitVec 256))
(declare-fun x20 ((_ BitVec 256)) (_ BitVec 256))
(declare-fun x341 () (_ BitVec 256))
(declare-fun x164 () (_ BitVec 256))
(declare-fun x217 () (_ BitVec 256))
(declare-fun x92 () (_ BitVec 256))
(declare-fun x294 () (_ BitVec 256))
(declare-fun x322 () (_ BitVec 256))
(declare-fun x146 () (_ BitVec 256))
(declare-fun x22 ((_ BitVec 256)) (_ BitVec 256))
(declare-fun x286 () Bool)
(declare-fun x159 () (_ BitVec 256))
(declare-fun x258 () Bool)
(declare-fun x126 () (_ BitVec 256))
(declare-fun x15 () (_ BitVec 256))
(declare-fun x270 () (_ BitVec 256))
(declare-fun x35 () (_ BitVec 256))
(declare-fun x230 () Bool)
(declare-fun x52 () Bool)
(declare-fun x201 () (_ BitVec 256))
(declare-fun x30 () (_ BitVec 256))
(declare-fun x39 () (_ BitVec 256))
(declare-fun x64 () (_ BitVec 256))
(declare-fun x26 () (_ BitVec 256))
(declare-fun x244 () Bool)
(declare-fun x262 () (_ BitVec 256))
(declare-fun x105 () Bool)
(declare-fun x285 () (_ BitVec 256))
(declare-fun x334 () Bool)
(declare-fun x106 () (_ BitVec 256))
(declare-fun x75 () (_ BitVec 256))
(declare-fun x158 () Bool)
(declare-fun x88 () Bool)
(declare-fun x166 () (_ BitVec 256))
(declare-fun x255 () (_ BitVec 256))
(declare-fun x269 () (_ BitVec 256))
(declare-fun x277 () (_ BitVec 256))
(declare-fun x265 () (_ BitVec 256))
(declare-fun x275 () Bool)
(declare-fun x245 ((_ BitVec 256)) (_ BitVec 256))
(declare-fun x60 () (_ BitVec 256))
(declare-fun x86 () (_ BitVec 256))
(declare-fun x70 () (_ BitVec 256))
(declare-fun x239 () (_ BitVec 256))
(declare-fun x228 () Bool)
(declare-fun x165 () Bool)
(declare-fun x162 () (_ BitVec 256))
(declare-fun x343 () Bool)
(declare-fun x186 () (_ BitVec 256))
(declare-fun x12 () (_ BitVec 256))
(declare-fun x116 () (_ BitVec 256))
(declare-fun x271 () (_ BitVec 256))
(declare-fun x109 () (_ BitVec 256))
(declare-fun x78 () Bool)
(declare-fun x9 () (_ BitVec 256))
(declare-fun x171 () (_ BitVec 256))
(declare-fun x173 () (_ BitVec 256))
(declare-fun x157 () Bool)
(declare-fun x160 () (_ BitVec 256))
(declare-fun x2 () (_ BitVec 256))
(declare-fun x214 () (_ BitVec 256))
(declare-fun x40 () (_ BitVec 256))
(declare-fun x14 () (_ BitVec 256))
(declare-fun x332 () (_ BitVec 256))
(declare-fun x180 () (_ BitVec 256))
(declare-fun x247 () (_ BitVec 256))
(declare-fun x54 () Bool)
(declare-fun x71 () (_ BitVec 256))
(declare-fun x133 () (_ BitVec 256))
(declare-fun x82 () (_ BitVec 256))
(declare-fun x236 () (_ BitVec 256))
(declare-fun x34 () (_ BitVec 256))
(declare-fun x280 () (_ BitVec 256))
(declare-fun x308 () (_ BitVec 256))
(declare-fun x48 () Bool)
(declare-fun x108 () (_ BitVec 256))
(declare-fun x311 () (_ BitVec 256))
(declare-fun x18 () (_ BitVec 256))
(declare-fun x111 () (_ BitVec 256))
(declare-fun x298 () Bool)
(declare-fun x5 () (_ BitVec 256))
(declare-fun x99 () (_ BitVec 256))
(declare-fun x202 () Bool)
(declare-fun x124 () (_ BitVec 256))
(declare-fun x110 () Bool)
(declare-fun x17 () Bool)
(declare-fun x142 () (_ BitVec 256))
(declare-fun x283 () (_ BitVec 256))
(declare-fun x6 () (_ BitVec 256))
(declare-fun x250 () (_ BitVec 256))
(declare-fun x83 () (_ BitVec 256))
(declare-fun x3 ((_ BitVec 256)) (_ BitVec 256))
(declare-fun x321 () Bool)
(declare-fun x292 () Bool)
(declare-fun x185 () (_ BitVec 256))
(declare-fun x174 () (_ BitVec 256))
(declare-fun x127 () (_ BitVec 256))
(declare-fun x235 () (_ BitVec 256))
(declare-fun x21 () (_ BitVec 256))
(declare-fun x301 () (_ BitVec 256))
(declare-fun x114 () (_ BitVec 256))
(declare-fun x222 () (_ BitVec 256))
(declare-fun x29 () (_ BitVec 256))
(define-fun x339 ((x320 (_ BitVec 256)) (x118 (_ BitVec 256))) Bool (= x320 (bvudiv (bvmul x118 x320) x118)))
(define-fun x205 ((x320 (_ BitVec 256)) (x118 (_ BitVec 256))) Bool (= x320 (bvsdiv (bvmul x320 x118) x118)))
(define-fun x241 ((x320 (_ BitVec 256)) (x118 (_ BitVec 256))) Bool (= x320 (bvsdiv (bvmul x118 x320) x118)))
(define-fun x338 ((x259 (_ BitVec 256))) (_ BitVec 256) (_ bv0 256))
(define-fun x25 ((x259 (_ BitVec 256))) (_ BitVec 256) (_ bv0 256))
(define-fun x31 ((x259 (_ BitVec 256))) (_ BitVec 256) (_ bv0 256))
(define-fun x144 ((x259 (_ BitVec 256))) (_ BitVec 256) (ite (= x259 (_ bv128 256)) x335 (x338 x259)))
(define-fun x284 ((x259 (_ BitVec 256))) (_ BitVec 256) (ite (= x259 (_ bv160 256)) x9 (x144 x259)))
(define-fun x148 ((x259 (_ BitVec 256))) (_ BitVec 256) (ite (= x259 (_ bv192 256)) x233 (x284 x259)))
(define-fun x227 ((x259 (_ BitVec 256))) (_ BitVec 256) (ite (= x259 (_ bv224 256)) x56 (x148 x259)))
(define-fun x193 ((x259 (_ BitVec 256))) (_ BitVec 256) (ite (= x259 (_ bv256 256)) x164 (x227 x259)))
(define-fun x38 ((x259 (_ BitVec 256))) (_ BitVec 256) (ite (= (_ bv288 256) x259) x145 (x193 x259)))
(define-fun x273 ((x259 (_ BitVec 256))) (_ BitVec 256) (ite (= x259 (_ bv128 256)) x37 (x25 x259)))
(define-fun x7 ((x259 (_ BitVec 256))) (_ BitVec 256) (ite (= (_ bv160 256) x259) x270 (x273 x259)))
(define-fun x176 ((x259 (_ BitVec 256))) (_ BitVec 256) (ite (= x259 (_ bv192 256)) x207 (x7 x259)))
(define-fun x267 ((x259 (_ BitVec 256))) (_ BitVec 256) (ite (= x259 (_ bv224 256)) x285 (x176 x259)))
(define-fun x183 ((x259 (_ BitVec 256))) (_ BitVec 256) (ite (= (_ bv256 256) x259) x104 (x267 x259)))
(define-fun x279 ((x259 (_ BitVec 256))) (_ BitVec 256) (ite (= (_ bv288 256) x259) (_ bv72464927124685711895252664195178772226123872012682517813167109100718830649344 256) (x183 x259)))
(define-fun x49 ((x259 (_ BitVec 256))) (_ BitVec 256) (ite (= x259 x119) x135 (x22 x259)))
(define-fun x276 ((x259 (_ BitVec 256))) (_ BitVec 256) (ite (= (_ bv128 256) x259) x74 (x31 x259)))
(define-fun x256 ((x259 (_ BitVec 256))) (_ BitVec 256) (ite (= (_ bv160 256) x259) x73 (x276 x259)))
(define-fun x316 ((x259 (_ BitVec 256))) (_ BitVec 256) (ite (= x259 (_ bv192 256)) x109 (x256 x259)))
(define-fun x187 ((x259 (_ BitVec 256))) (_ BitVec 256) (ite (= x259 (_ bv224 256)) x61 (x316 x259)))
(define-fun x93 ((x259 (_ BitVec 256))) (_ BitVec 256) (ite (= x259 (_ bv256 256)) x254 (x187 x259)))
(define-fun x161 ((x259 (_ BitVec 256))) (_ BitVec 256) (ite (= (_ bv288 256) x259) (_ bv72464927124685711895252664195178772226123872012682517813167109100718830649344 256) (x93 x259)))
(define-fun x323 ((x259 (_ BitVec 256))) (_ BitVec 256) (ite (= x259 (_ bv0 256)) x117 (x20 x259)))
(define-fun x32 ((x259 (_ BitVec 256))) (_ BitVec 256) (ite (and (bvuge x259 (_ bv288 256)) (bvugt (_ bv320 256) x259)) (x323 (bvadd (bvneg (_ bv288 256)) x259)) (x279 x259)))
(define-fun x175 ((x259 (_ BitVec 256))) (_ BitVec 256) (ite (= x259 (_ bv0 256)) x65 (x147 x259)))
(define-fun x272 ((x259 (_ BitVec 256))) (_ BitVec 256) (ite (and (bvult x259 (_ bv320 256)) (bvule (_ bv288 256) x259)) (x175 (bvadd (bvneg (_ bv288 256)) x259)) (x161 x259)))
(assert (=> (bvule x155 (_ bv10000 256)) (= (x179 x155) (_ bv0 256))))
(assert (= (x179 x159) (x179 (bvadd x159 (_ bv2 256)))))
(assert (x200 (_ bv1000000 256)))
(assert (= x169 (or x17 x52)))
(assert (= (x41 (x274 (_ bv160 256) x271 x100 x305 x155 x299)) x155))
(assert (= (x33 (x342 (_ bv64 256) x57 (_ bv2 256))) (_ bv2 256)))
(assert (= (x342 (_ bv64 256) x91 (_ bv2 256)) (x179 (x342 (_ bv64 256) x91 (_ bv2 256)))))
(assert (= (x179 (bvadd (_ bv1 256) x341)) (x179 x341)))
(assert (= (_ bv2 256) (x33 (x342 (_ bv64 256) x189 (_ bv2 256)))))
(assert (=> (bvule x253 (_ bv10000 256)) (= (_ bv0 256) (x179 x253))))
(assert (=> (bvuge (_ bv10000 256) x28) (= (_ bv0 256) (x179 x28))))
(assert (= (x342 (_ bv64 256) x300 x223) (x179 (x342 (_ bv64 256) x300 x223))))
(assert (= x244 (and x168 x215)))
(assert (= x249 (=> (and (and (bvuge (_ bv340282366920938463463374607431768211455 256) x77) (bvuge (_ bv4294967295 256) x98) (bvule x188 (_ bv1461501637330902918203684832716283019655932542975 256)) (bvuge (_ bv1461501637330902918203684832716283019655932542975 256) x303) (= x141 (bvult (_ bv0 256) (x245 x70))) (bvule (_ bv0 256) x243) (bvule x160 (_ bv115792089237316195423570985008687907853269984665640564039457584007913129639935 256)) (bvuge x77 (_ bv0 256)) (bvule x322 (_ bv115792089237316195423570985008687907853269984665640564039457584007913129639935 256)) (= x201 (_ bv0 256)) (bvule (_ bv0 256) x209) (bvule (_ bv1 256) x296) (= (bvult (_ bv0 256) (x245 x296)) x68) (bvule (_ bv0 256) x122) (bvuge x70 (_ bv1 256)) (bvule x122 (_ bv1461501637330902918203684832716283019655932542975 256)) (bvuge x322 (_ bv0 256)) (bvuge x67 (_ bv0 256)) (bvuge (_ bv115792089237316195423570985008687907853269984665640564039457584007913129639935 256) x24) (bvuge x303 (_ bv0 256)) (bvule (_ bv0 256) x160) (bvuge (_ bv1461501637330902918203684832716283019655932542975 256) x70) (bvule (_ bv0 256) x24) (bvule (_ bv0 256) x218) (bvule x260 (_ bv999999999999999999 256)) (bvuge x188 (_ bv0 256)) (bvuge (_ bv1461501637330902918203684832716283019655932542975 256) x243) (bvuge (_ bv57896044618658097711785492504343953926634992332820282019728792003956564819967 256) x204) (bvule x209 (_ bv115792089237316195423570985008687907853269984665640564039457584007913129639935 256)) (bvule (_ bv0 256) x226) (bvule x231 (_ bv1461501637330902918203684832716283019655932542975 256)) (bvuge (_ bv1461501637330902918203684832716283019655932542975 256) x315) (bvule (_ bv0 256) x231) (bvuge x315 (_ bv0 256)) (bvuge (_ bv1461501637330902918203684832716283019655932542975 256) x226) (bvuge (_ bv1461501637330902918203684832716283019655932542975 256) x67) (bvule (_ bv0 256) x260) (= (_ bv164 256) x269) (not (= x70 x296)) (bvuge (_ bv115792089237316195423570985008687907853269984665640564039457584007913129639935 256) x218) x68 (bvuge x98 (_ bv0 256)) x141 (bvuge (_ bv1461501637330902918203684832716283019655932542975 256) x296) (bvuge x204 (_ bv36 256))) (and (= x335 x315) (and (and (and (= x56 x67) (and (and (= x37 x315) (and (and (= x207 x226) (and (= x67 x285) (and (and (= x134 (_ bv1534929069 256)) (= x328 (bvand (_ bv340282366920938463463374607431768211455 256) x75)) (= x306 (_ bv128 256)) (= x291 (x183 (_ bv256 256))) (= x224 x300) (= x75 (x302 x128)) (= (x183 (_ bv128 256)) x143) (= x128 (bvadd x181 (_ bv1 256))) (= x300 x222) (= (x342 (_ bv64 256) x300 x223) x181) (= (x342 (_ bv64 256) x189 (_ bv2 256)) x223) (= (x183 (_ bv192 256)) x87) (= (x183 (_ bv160 256)) x42) (= x26 (x245 x296)) (= (x274 (_ bv160 256) x143 x42 x87 x43 x291) x189) (= (x183 (_ bv224 256)) x43) (= (= x328 (_ bv0 256)) x120) (bvule (_ bv1 256) x26)) (= x104 x260)))) (= x270 x243))) (and (= x305 (x193 (_ bv192 256))) (= (x193 (_ bv160 256)) x100) (= (_ bv196 256) x229) (= (_ bv3745429343 256) x34) (= x145 (x274 (_ bv160 256) x271 x100 x305 x155 x299)) (= (x193 (_ bv224 256)) x155) (= x91 (x38 (_ bv288 256))) (= x260 x164) (bvuge (_ bv1461501637330902918203684832716283019655932542975 256) x2) (= x222 x2) (= x299 (x193 (_ bv256 256))) (= x101 (_ bv128 256)) (= (x193 (_ bv128 256)) x271) (bvuge x2 (_ bv0 256)) (bvuge x163 (_ bv1 256)) (= (x245 x296) x163)))) (= x226 x233)) (= x243 x9)))) (and (=> (and x120 (= x39 x337)) x19) (=> (and (not x120) (and (or (and x215 (and x215 (= true x343) (= x18 x142) (= x142 x151))) (and (not x215) (and (= x18 x337) (not x215)))) (and (= (bvand x309 (_ bv1461501637330902918203684832716283019655932542975 256)) x219) (= x151 x265) (= (not x105) x215) (= (_ bv288 256) x27) (= x105 (= x337 x265)) (bvuge x151 (_ bv0 256)) (bvuge (_ bv115792089237316195423570985008687907853269984665640564039457584007913129639935 256) x151) (= x309 (x183 (_ bv192 256)))))) x113)))))
(assert (=> (bvuge (_ bv10000 256) x91) (= (x179 x91) (_ bv0 256))))
(assert (bvugt (x342 (_ bv64 256) x253 x114) (_ bv10000 256)))
(assert (=> (bvuge (_ bv10000 256) x100) (= (x179 x100) (_ bv0 256))))
(assert (=> (bvule x143 (_ bv10000 256)) (= (_ bv0 256) (x179 x143))))
(assert (= (x33 (x342 (_ bv64 256) x91 (_ bv3 256))) (_ bv3 256)))
(assert (= (x234 (x342 (_ bv64 256) x91 (_ bv2 256))) x91))
(assert (= (_ bv0 256) (x179 (_ bv72464927124685711895252664195178772226123872012682517813167109100718830649344 256))))
(assert (=> (bvuge (_ bv10000 256) x43) (= (_ bv0 256) (x179 x43))))
(assert (= (_ bv0 256) (x179 (_ bv3745429343 256))))
(assert (not x249))
(assert (= (_ bv0 256) (x179 (_ bv999999999999999999 256))))
(assert (= x91 (x234 (x342 (_ bv64 256) x91 (_ bv3 256)))))
(assert (= (x121 (x342 (_ bv64 256) x300 x185)) (_ bv64 256)))
(assert (= (x234 (x342 (_ bv64 256) x300 x345)) x300))
(assert (= x289 (x33 (x342 (_ bv64 256) x115 x289))))
(assert (x200 (_ bv1000000000000000000 256)))
(assert (= (=> (and (and (bvule (_ bv1 256) x329) (= (bvadd (_ bv2 256) x159) x192) (= (x278 (_ bv4 256)) x108) (= x329 (x245 x296)) (= x45 x139) (= x166 (x302 x192)) x286 (= (x342 (_ bv64 256) x91 (_ bv3 256)) x159) (= x336 (_ bv1 256)) (= (= x77 x76) x286) (= false x293) (= x239 x108) (= (_ bv181336955 256) x116) (= x45 x91) (= (_ bv36 256) x44) (= (bvand x166 (_ bv340282366920938463463374607431768211455 256)) x76)) (and (and (= x238 x135) (= (x245 x70) x310) (= x79 x239) (= x231 x119) (bvuge x310 (_ bv1 256)) (= x140 (_ bv68 256)) (= (_ bv2444752365 256) x66) (= x127 (x49 x70)) (= (x22 x119) x135) (= x191 x2) (= x4 x91) (= x295 x127)) (and (and (= x289 (x342 (_ bv64 256) x91 (_ bv2 256))) (= (bvuge x96 x290) x62) (= x84 x237) (= x235 (_ bv3490909752 256)) (= x133 x2) (= x81 (bvadd (_ bv1 256) x341)) (= (bvudiv x247 (_ bv340282366920938463463374607431768211456 256)) x96) (= x242 (_ bv36 256)) (= (x302 x81) x216) (= x99 (bvadd (_ bv1 256) x177)) (bvuge x29 (_ bv1 256)) (= x103 (_ bv196 256)) (= x29 (x245 x296)) (= x107 x4) (= (x245 x296) x40) (= x237 x91) (= x115 x137) (= x341 (x342 (_ bv64 256) x115 x289)) (= (x342 (_ bv64 256) x91 (_ bv3 256)) x177) x62 (= (bvand (_ bv340282366920938463463374607431768211455 256) x216) x290) (bvuge x40 (_ bv1 256)) (= x247 (x302 x99)) (= x115 x191) (= (_ bv1058260626 256) x82)) (and (and (and (and (and (= x254 x260) (and (= x53 (_ bv1534929069 256)) (= x11 (x93 (_ bv224 256))) (bvuge x167 (_ bv1 256)) (= x167 (x245 x296)) (= x311 x253) (= (bvadd x332 (_ bv1 256)) x307) (= x264 (x342 (_ bv64 256) x57 (_ bv2 256))) (= (x93 (_ bv160 256)) x28) (= x153 (= x220 (_ bv0 256))) (= (_ bv128 256) x318) (= (x302 x307) x5) (= (x342 (_ bv64 256) x253 x264) x332) (= x220 (bvand x5 (_ bv340282366920938463463374607431768211455 256))) (= (x93 (_ bv128 256)) x252) (= x57 (x274 (_ bv160 256) x252 x28 x80 x11 x213)) (= x80 (x93 (_ bv192 256))) (= x253 x133) (= x213 (x93 (_ bv256 256))))) (= x61 x67)) (= x109 x226)) (= x243 x73)) (= x74 x315))))) (and (=> (and (and (and (bvuge (_ bv115792089237316195423570985008687907853269984665640564039457584007913129639935 256) x126) (= (bvand (_ bv1461501637330902918203684832716283019655932542975 256) x317) x106) (= x317 (x93 (_ bv192 256))) (= (not x125) x54) (= x126 x255) (= x125 (= x255 x39)) (= (_ bv288 256) x90) (bvule (_ bv0 256) x126)) (or (and (and x54 (= x170 x51) (= x330 x126) (= x170 true)) x54) (and (and (not x54) (= x293 x51)) (not x54)))) (not x153)) x110) (=> (and (and (= x275 x293) (= (_ bv1 256) x23)) x153) x325))) x19))
(assert (bvult (_ bv10000 256) (x342 (_ bv64 256) x57 (_ bv3 256))))
(assert (= (x342 (_ bv64 256) x57 (_ bv3 256)) (x179 (x342 (_ bv64 256) x57 (_ bv3 256)))))
(assert (= x143 (x234 (x274 (_ bv160 256) x143 x42 x87 x43 x291))))
(assert (= (x33 (x342 (_ bv64 256) x189 (_ bv3 256))) (_ bv3 256)))
(assert (x200 (_ bv181336955 256)))
(assert (=> (bvuge (_ bv10000 256) x271) (= (x179 x271) (_ bv0 256))))
(assert (= (or x169 x132) x263))
(assert (= (x179 (bvadd x181 (_ bv1 256))) (x179 x181)))
(assert (not (x200 (x342 (_ bv64 256) x189 (_ bv2 256)))))
(assert (=> (bvuge (_ bv10000 256) x70) (= (_ bv0 256) (x179 x70))))
(assert (= (_ bv64 256) (x121 (x342 (_ bv64 256) x253 x114))))
(assert (= (_ bv64 256) (x121 (x342 (_ bv64 256) x57 (_ bv3 256)))))
(assert (= (x179 x177) (x179 (bvadd x177 (_ bv1 256)))))
(assert (= (x179 (x274 (_ bv160 256) x271 x100 x305 x155 x299)) (x274 (_ bv160 256) x271 x100 x305 x155 x299)))
(assert (= x28 (x33 (x274 (_ bv160 256) x252 x28 x80 x11 x213))))
(assert (= x253 (x234 (x342 (_ bv64 256) x253 x197))))
(assert (bvult (_ bv10000 256) (x342 (_ bv64 256) x300 x185)))
(assert (= (x234 (x342 (_ bv64 256) x57 (_ bv3 256))) x57))
(assert (x200 (_ bv1534929069 256)))
(assert (= (_ bv0 256) (x179 (_ bv181336955 256))))
(assert (bvult (_ bv10000 256) (x342 (_ bv64 256) x253 x197)))
(assert (= x291 (x138 (x274 (_ bv160 256) x143 x42 x87 x43 x291))))
(assert (= x299 (x138 (x274 (_ bv160 256) x271 x100 x305 x155 x299))))
(assert (=> (bvuge (_ bv10000 256) x291) (= (x179 x291) (_ bv0 256))))
(assert (= (and x54 x88) x17))
(assert (not (x200 (x342 (_ bv64 256) x115 x289))))
(assert (=> (bvuge (_ bv10000 256) x119) (= (_ bv0 256) (x179 x119))))
(assert (= (x234 (x342 (_ bv64 256) x57 (_ bv2 256))) x57))
(assert (x200 (_ bv72464927124685711895252664195178772226123872012682517813167109100718830649344 256)))
(assert (= (x234 (x342 (_ bv64 256) x253 x114)) x253))
(assert (x200 (_ bv115792089237316195423570985008687907853269984665640564039457584007913129639935 256)))
(assert (= (x234 (x342 (_ bv64 256) x189 (_ bv3 256))) x189))
(assert (x200 (_ bv1000000000000000000000000000000000000 256)))
(assert (x200 (_ bv1058260626 256)))
(assert (bvult (_ bv10000 256) (x342 (_ bv64 256) x57 (_ bv2 256))))
(assert (= (x179 (x342 (_ bv64 256) x189 (_ bv2 256))) (x342 (_ bv64 256) x189 (_ bv2 256))))
(assert (= (x33 (x342 (_ bv64 256) x253 x114)) x114))
(assert (= (x179 (x342 (_ bv64 256) x253 x114)) (x342 (_ bv64 256) x253 x114)))
(assert (x200 (_ bv2444752365 256)))
(assert (= (_ bv64 256) (x121 (x342 (_ bv64 256) x91 (_ bv3 256)))))
(assert (= (x342 (_ bv64 256) x253 x197) (x179 (x342 (_ bv64 256) x253 x197))))
(assert (= (x33 (x342 (_ bv64 256) x91 (_ bv2 256))) (_ bv2 256)))
(assert (x200 (_ bv3745429343 256)))
(assert (= (x121 (x342 (_ bv64 256) x300 x345)) (_ bv64 256)))
(assert (not (x200 (x342 (_ bv64 256) x91 (_ bv2 256)))))
(assert (= x252 (x234 (x274 (_ bv160 256) x252 x28 x80 x11 x213))))
(assert (= (x138 (x274 (_ bv160 256) x252 x28 x80 x11 x213)) x213))
(assert (= (_ bv160 256) (x121 (x274 (_ bv160 256) x143 x42 x87 x43 x291))))
(assert (x200 (_ bv4294967295 256)))
(assert (= (x179 (bvadd (_ bv1 256) x14)) (x179 x14)))
(assert (= x87 (x3 (x274 (_ bv160 256) x143 x42 x87 x43 x291))))
(assert (= (and (not x215) x168) x89))
(assert (= (x33 (x274 (_ bv160 256) x271 x100 x305 x155 x299)) x100))
(assert (bvugt (x342 (_ bv64 256) x189 (_ bv3 256)) (_ bv10000 256)))
(assert (= (x179 (bvadd (_ bv1 256) x282)) (x179 x282)))
(assert (= (x274 (_ bv160 256) x143 x42 x87 x43 x291) (x179 (x274 (_ bv160 256) x143 x42 x87 x43 x291))))
(assert (x200 (_ bv1461501637330902918203684832716283019655932542975 256)))
(assert (= x168 (and (not x120) x123)))
(assert (bvult (_ bv10000 256) (x274 (_ bv160 256) x252 x28 x80 x11 x213)))
(assert (= (and x334 (not x153)) x88))
(assert (=> (bvuge (_ bv10000 256) x305) (= (_ bv0 256) (x179 x305))))
(assert (=> (bvule x252 (_ bv10000 256)) (= (x179 x252) (_ bv0 256))))
(assert (bvult (_ bv10000 256) (x342 (_ bv64 256) x91 (_ bv2 256))))
(assert (= (x121 (x342 (_ bv64 256) x189 (_ bv3 256))) (_ bv64 256)))
(assert (not (x200 (x274 (_ bv160 256) x143 x42 x87 x43 x291))))
(assert (= (x3 (x274 (_ bv160 256) x252 x28 x80 x11 x213)) x80))
(assert (not (x200 (x342 (_ bv64 256) x253 x197))))
(assert (=> (bvuge (_ bv10000 256) x87) (= (x179 x87) (_ bv0 256))))
(assert (= x189 (x234 (x342 (_ bv64 256) x189 (_ bv2 256)))))
(assert (= x223 (x33 (x342 (_ bv64 256) x300 x223))))
(assert (=> (bvuge (_ bv10000 256) x296) (= (x179 x296) (_ bv0 256))))
(assert (= (x33 (x274 (_ bv160 256) x143 x42 x87 x43 x291)) x42))
(assert (=> (bvule x11 (_ bv10000 256)) (= (x179 x11) (_ bv0 256))))
(assert (= x165 (and x120 x123)))
(assert (= (_ bv0 256) (x179 (_ bv1000000000000000000000000000000000000 256))))
(assert (bvult (_ bv10000 256) (x274 (_ bv160 256) x143 x42 x87 x43 x291)))
(assert (=> (bvule x299 (_ bv10000 256)) (= (_ bv0 256) (x179 x299))))
(assert (= (x179 (bvadd x332 (_ bv1 256))) (x179 x332)))
(assert (=> (bvuge (_ bv10000 256) x42) (= (_ bv0 256) (x179 x42))))
(assert (bvugt (x342 (_ bv64 256) x189 (_ bv2 256)) (_ bv10000 256)))
(assert (= (x33 (x342 (_ bv64 256) x57 (_ bv3 256))) (_ bv3 256)))
(assert (= (x179 (_ bv1461501637330902918203684832716283019655932542975 256)) (_ bv0 256)))
(assert (= (x179 (x342 (_ bv64 256) x189 (_ bv3 256))) (x342 (_ bv64 256) x189 (_ bv3 256))))
(assert (= (or x228 x165) x334))
(assert (= (_ bv0 256) (x179 (_ bv4294967295 256))))
(assert (= (_ bv0 256) (x179 (_ bv1058260626 256))))
(assert (= (x33 (x342 (_ bv64 256) x300 x345)) x345))
(assert (= (x179 (_ bv115792089237316195423570985008687907853269984665640564039457584007913129639935 256)) (_ bv0 256)))
(assert (= (x179 (bvadd x46 (_ bv1 256))) (x179 x46)))
(assert (bvugt (x342 (_ bv64 256) x300 x223) (_ bv10000 256)))
(assert (= x110 (=> (and (and (and (and (and (bvuge (_ bv115792089237316195423570985008687907853269984665640564039457584007913129639935 256) x236) (= x162 x212) (= (_ bv1000000000000000000000000000000000000 256) x83) (= (x302 x16) x6) (= x149 x225) (= x197 (x342 (_ bv64 256) x57 (_ bv2 256))) (= x16 (bvadd (_ bv1 256) x14)) (= x47 x196) (= (x342 (_ bv64 256) x253 x197) x14) (= x294 x196) (= false x48) (= (x272 (_ bv256 256)) x326) (bvuge x236 (_ bv0 256)) (= (bvudiv x6 (_ bv340282366920938463463374607431768211456 256)) x47) (= x212 x60) (= x236 (bvmul x294 x60))) (and (and (and (= x312 x313) (= x203 x326) (bvuge (_ bv115792089237316195423570985008687907853269984665640564039457584007913129639935 256) x301) (bvule (_ bv0 256) x301) (= x172 x313) (= x230 false) (= x92 x172) (= x180 (_ bv1000000000000000000 256)) (= x203 x13) (= (bvmul x13 x312) x301)) (and (and (= x154 (not (bvugt x225 x111))) (= x268 x111) (= x275 x51) (= (ite x154 (_ bv1 256) (_ bv0 256)) x23)) (= (bvudiv x301 (_ bv1000000000000000000 256)) x268))) (= x92 (bvudiv x236 (_ bv1000000000000000000000000000000000000 256))))) (= x149 (bvudiv x190 x262))) (and (= x97 (bvadd (_ bv1000000 256) x199)) (= x283 (bvadd (_ bv1 256) x288)) (= x178 (x302 x129)) (= (bvadd x211 x257) x190) (= x65 x94) (= (bvadd (_ bv1 256) x171) x12) (= x262 x97) (= x95 (x302 x283)) (= x158 false) (= (bvand x95 (_ bv340282366920938463463374607431768211455 256)) x171) (= (x272 (_ bv288 256)) x162) (= x46 (x342 (_ bv64 256) x57 (_ bv3 256))) (= x340 (bvadd (_ bv1 256) x250)) (= x12 x266) (= x199 (bvudiv x178 (_ bv340282366920938463463374607431768211456 256))) (= (bvadd (bvneg (_ bv1 256)) x131) x257) (= x97 x131) (= (bvand x186 (_ bv340282366920938463463374607431768211455 256)) x194) (= x114 (x342 (_ bv64 256) x57 (_ bv2 256))) (= x186 (x302 x340)) (= x194 x63) (= x211 (bvmul x182 x266)) (= (x342 (_ bv64 256) x253 x114) x250) (= x63 x182) (= (bvadd (_ bv1 256) x46) x129) (= (x342 (_ bv64 256) x57 (_ bv3 256)) x288))) (= x94 x126)) x325)))
(assert (= (=> (and (= x184 x151) (and (and (= x146 (bvadd (_ bv1000000 256) x150)) (= x21 (x32 (_ bv288 256))) (= x287 x35) (= (bvadd x217 (_ bv1 256)) x344) (= x217 (bvand (_ bv340282366920938463463374607431768211455 256) x261)) (= x146 x195) (= (bvadd x130 (_ bv1 256)) x333) (= (x342 (_ bv64 256) x189 (_ bv3 256)) x130) (= (x342 (_ bv64 256) x189 (_ bv2 256)) x345) (= x146 x324) (= x35 x86) (= x59 (x342 (_ bv64 256) x300 x345)) (= x173 (bvadd x324 (bvneg (_ bv1 256)))) (= (bvand (_ bv340282366920938463463374607431768211455 256) x30) x287) (= x71 (bvmul x85 x86)) (= x117 x184) (= x30 (x302 x251)) (= (x302 x333) x261) (= x344 x85) (= x150 (bvudiv x327 (_ bv340282366920938463463374607431768211456 256))) (= (bvadd (_ bv1 256) x59) x251) (= x221 (bvadd (_ bv1 256) x282)) (= x282 (x342 (_ bv64 256) x189 (_ bv3 256))) (= x58 (bvadd x173 x71)) (= x327 (x302 x221)) (= x202 false)) (and (and (and (= x248 (bvudiv x297 (_ bv1000000000000000000000000000000000000 256))) (and (and (and (= x36 x152) (= x18 x39) (not (bvult x36 x136)) (= true x206)) (= (bvudiv x8 (_ bv1000000000000000000 256)) x152)) (and (= x304 x55) (= x248 x314) (= x208 x198) (= false x10) (= x314 x208) (bvule x8 (_ bv115792089237316195423570985008687907853269984665640564039457584007913129639935 256)) (= x55 x64) (bvule (_ bv0 256) x8) (= (bvmul x198 x64) x8) (= x331 (_ bv1000000000000000000 256))))) (and (= x210 (bvadd x124 (_ bv1 256))) (= x21 x277) (= x297 (bvmul x15 x308)) (= x136 x72) (= (x342 (_ bv64 256) x189 (_ bv2 256)) x185) (bvule x297 (_ bv115792089237316195423570985008687907853269984665640564039457584007913129639935 256)) (= x258 false) (= x174 x246) (= (_ bv1000000000000000000000000000000000000 256) x1) (= x174 x15) (= x124 (x342 (_ bv64 256) x300 x185)) (= x277 x308) (= (bvudiv x280 (_ bv340282366920938463463374607431768211456 256)) x246) (bvule (_ bv0 256) x297) (= (x302 x210) x280) (= (x32 (_ bv256 256)) x304))) (= x72 (bvudiv x58 x195))))) x19) x113))
(assert (= (x121 (x274 (_ bv160 256) x271 x100 x305 x155 x299)) (_ bv160 256)))
(assert (not (x200 (x342 (_ bv64 256) x189 (_ bv3 256)))))
(assert (not (x200 (x274 (_ bv160 256) x271 x100 x305 x155 x299))))
(assert (= (_ bv64 256) (x121 (x342 (_ bv64 256) x57 (_ bv2 256)))))
(assert (= (x179 (x342 (_ bv64 256) x115 x289)) (x342 (_ bv64 256) x115 x289)))
(assert (not (x200 (x342 (_ bv64 256) x253 x264))))
(assert (= (_ bv64 256) (x121 (x342 (_ bv64 256) x300 x223))))
(assert (= x271 (x234 (x274 (_ bv160 256) x271 x100 x305 x155 x299))))
(assert (= (x179 x130) (x179 (bvadd x130 (_ bv1 256)))))
(assert (=> (bvule x80 (_ bv10000 256)) (= (_ bv0 256) (x179 x80))))
(assert (not (x200 (x274 (_ bv160 256) x252 x28 x80 x11 x213))))
(assert (= (x179 (x274 (_ bv160 256) x252 x28 x80 x11 x213)) (x274 (_ bv160 256) x252 x28 x80 x11 x213)))
(assert (= (_ bv0 256) (x179 (_ bv340282366920938463463374607431768211455 256))))
(assert (= (_ bv0 256) (x179 (_ bv1000000000000000000 256))))
(assert (= (x33 (x342 (_ bv64 256) x253 x264)) x264))
(assert (= (_ bv64 256) (x121 (x342 (_ bv64 256) x91 (_ bv2 256)))))
(assert (= (x179 x124) (x179 (bvadd (_ bv1 256) x124))))
(assert (= (x179 (_ bv1000000 256)) (_ bv0 256)))
(assert (not (x200 (x342 (_ bv64 256) x57 (_ bv2 256)))))
(assert (bvult (_ bv10000 256) (x342 (_ bv64 256) x115 x289)))
(assert (= (_ bv0 256) (x179 (_ bv3490909752 256))))
(assert (= (x179 x288) (x179 (bvadd (_ bv1 256) x288))))
(assert (x200 (_ bv57896044618658097711785492504343953926634992332820282019728792003956564819967 256)))
(assert (bvult (_ bv10000 256) (x342 (_ bv64 256) x91 (_ bv3 256))))
(assert (= x305 (x3 (x274 (_ bv160 256) x271 x100 x305 x155 x299))))
(assert (= (x342 (_ bv64 256) x57 (_ bv2 256)) (x179 (x342 (_ bv64 256) x57 (_ bv2 256)))))
(assert (x200 (_ bv340282366920938463463374607431768211455 256)))
(assert (bvugt (x274 (_ bv160 256) x271 x100 x305 x155 x299) (_ bv10000 256)))
(assert (= (x179 (_ bv340282366920938463463374607431768211456 256)) (_ bv0 256)))
(assert (x200 (_ bv3490909752 256)))
(assert (= true x123))
(assert (= x52 (and (not x54) x88)))
(assert (=> (bvule x115 (_ bv10000 256)) (= (_ bv0 256) (x179 x115))))
(assert (= (x342 (_ bv64 256) x300 x185) (x179 (x342 (_ bv64 256) x300 x185))))
(assert (= x115 (x234 (x342 (_ bv64 256) x115 x289))))
(assert (= x43 (x41 (x274 (_ bv160 256) x143 x42 x87 x43 x291))))
(assert (not (x200 (x342 (_ bv64 256) x300 x185))))
(assert (bvult (_ bv10000 256) (x342 (_ bv64 256) x253 x264)))
(assert (not (x200 (x342 (_ bv64 256) x57 (_ bv3 256)))))
(assert (= (x234 (x342 (_ bv64 256) x253 x264)) x253))
(assert (not (x200 (x342 (_ bv64 256) x300 x223))))
(assert (= (x33 (x342 (_ bv64 256) x300 x185)) x185))
(assert (not (x200 (x342 (_ bv64 256) x300 x345))))
(assert (= (x179 (x342 (_ bv64 256) x300 x345)) (x342 (_ bv64 256) x300 x345)))
(assert (= (x121 (x342 (_ bv64 256) x253 x264)) (_ bv64 256)))
(assert (=> (bvule x213 (_ bv10000 256)) (= (_ bv0 256) (x179 x213))))
(assert (= (x342 (_ bv64 256) x91 (_ bv3 256)) (x179 (x342 (_ bv64 256) x91 (_ bv3 256)))))
(assert (bvugt (x342 (_ bv64 256) x300 x345) (_ bv10000 256)))
(assert (= (or x89 x244) x228))
(assert (= (x234 (x342 (_ bv64 256) x300 x185)) x300))
(assert (= x132 (and x334 x153)))
(assert (= (x121 (x274 (_ bv160 256) x252 x28 x80 x11 x213)) (_ bv160 256)))
(assert (= (x179 x59) (x179 (bvadd x59 (_ bv1 256)))))
(assert (= (x121 (x342 (_ bv64 256) x115 x289)) (_ bv64 256)))
(assert (= (_ bv64 256) (x121 (x342 (_ bv64 256) x189 (_ bv2 256)))))
(assert (= (x33 (x342 (_ bv64 256) x253 x197)) x197))
(assert (not (x200 (x342 (_ bv64 256) x253 x114))))
(assert (= (x179 (x342 (_ bv64 256) x253 x264)) (x342 (_ bv64 256) x253 x264)))
(assert (= x11 (x41 (x274 (_ bv160 256) x252 x28 x80 x11 x213))))
(assert (not (x200 (x342 (_ bv64 256) x91 (_ bv3 256)))))
(assert (x200 (_ bv340282366920938463463374607431768211456 256)))
(assert (=> (bvule x300 (_ bv10000 256)) (= (x179 x300) (_ bv0 256))))
(assert (= (x179 (bvadd (_ bv1 256) x250)) (x179 x250)))
(assert (x200 (_ bv999999999999999999 256)))
(assert (= (x179 (_ bv57896044618658097711785492504343953926634992332820282019728792003956564819967 256)) (_ bv0 256)))
(assert (= (_ bv64 256) (x121 (x342 (_ bv64 256) x253 x197))))
(assert (= (=> (and (= x102 (or (not x321) x50)) (= (not (= x23 (_ bv0 256))) x232) (= (not x275) x321) (= x50 (not (= (_ bv0 256) (ite x232 (_ bv1 256) (_ bv0 256)))))) x102) x325))
(assert (= (_ bv0 256) (x179 (_ bv1534929069 256))))
(assert (= (x234 (x342 (_ bv64 256) x300 x223)) x300))
(assert (= (x179 (_ bv2444752365 256)) (_ bv0 256)))
(check-sat)
(exit)
